tsp_instances/TSP20/instance1.tsp
NODE_COORD_SECTION
0 70 70
1 102 163
2 104 9
3 32 81
4 99 10
5 161 179
6 13 120
7 191 115
8 165 62
9 191 171
10 60 131
11 188 87
12 197 76
13 93 199
14 180 104
15 100 25
16 9 198
17 148 128
18 162 74
19 114 23
