tsp_instances/TSP20/instance1.opt.tour
TOUR_SECTION
1
4
7
11
17
14
2
18
6
10
8
15
12
13
19
9
20
3
5
16
-1